50
9746

374 610
466 972
884 555
788 665
366 806
872 499
675 359
899 532
617 572
576 931
311 715
296 878
728 633
993 188
544 267
762 785
440 821
691 336
38 573
150 788
343 907
859 416
704 912
673 727
927 95
903 404
63 562
927 316
440 151
116 230
193 651
217 746
152 742
882 697
710 712
671 713
964 837
204 704
985 992
184 657
256 72
314 868
681 677
70 482
96 817
157 863
439 307
630 665
895 8
679 59
